\ LP format - for model browsing. Use MPS format to capture full model detail.
Maximize
  46.04545454545456 z1 + 23.77272727272727 z2 + 41 z3 + 13.90909090909091 z4
   + 24.90909090909091 z5 + 22.31818181818181 z6 + 17.95454545454547 z7
   + 11 z8 + 18 z9 + 31.86363636363637 z10 + 12.45454545454546 z11 + 46 z12
   + 19.40909090909091 z13 + 32 z14 + 41 z15 + 38.8181818181818 z16
   + 35.95454545454545 z17 + 41 z18 + 46.18181818181818 z19 + 40 z20
Subject To
 constraint1: 47 z1 + 24 z2 + 41 z3 + 14 z4 + 26 z5 + 23 z6 + 19 z7 + 11 z8
   + 18 z9 + 33 z10 + 13 z11 + 46 z12 + 20 z13 + 32 z14 + 41 z15 + 39 z16
   + 36 z17 + 41 z18 + 48 z19 + 40 z20 <= 200
 constraints2_1_&_9: z1 - z9 = 0
 constraints2_3_&_15: z3 - z15 = 0
 constraints2_12_&_14: z12 - z14 = 0
 constraints2_14_&_18: z14 - z18 = 0
 constraints2_18_&_19: z18 - z19 = 0
 constraints3_1_|_3: z1 + z3 <= 1
 constraints3_1_|_12: z1 + z12 <= 1
 constraints3_1_|_14: z1 + z14 <= 1
 constraints3_1_|_15: z1 + z15 <= 1
 constraints3_3_|_10: z3 + z10 <= 1
 constraints3_3_|_12: z3 + z12 <= 1
 constraints3_3_|_13: z3 + z13 <= 1
 constraints3_3_|_16: z3 + z16 <= 1
 constraints3_3_|_19: z3 + z19 <= 1
 constraints3_6_|_11: z6 + z11 <= 1
 constraints3_9_|_12: z9 + z12 <= 1
 constraints3_9_|_14: z9 + z14 <= 1
 constraints3_12_|_15: z12 + z15 <= 1
 constraints3_12_|_20: z12 + z20 <= 1
 constraints3_15_|_19: z15 + z19 <= 1
 constraints3_17_|_20: z17 + z20 <= 1
 constraints3_18_|_20: z18 + z20 <= 1
Bounds
Binaries
 z1 z2 z3 z4 z5 z6 z7 z8 z9 z10 z11 z12 z13 z14 z15 z16 z17 z18 z19 z20
End
